40	100	100	100
4	9	7
5	8	4
4	1	1
9	4	2
2	1	7
7	2	7
8	6	9
4	3	9
9	8	1
1	4	8
5	3	9
9	3	6
7	8	9
7	5	6
6	2	9
8	6	5
7	9	2
4	4	4
7	7	3
4	4	8
4	6	9
9	6	7
1	6	4
3	3	8
2	7	9
8	7	7
8	9	4
2	4	7
7	4	1
2	3	1
4	2	8
7	9	3
1	6	7
1	7	6
6	7	1
2	7	8
3	1	5
3	2	2
9	9	9
5	2	9
